100
1000
165
165
164
160
159
157
155
154
154
153
150
150
150
147
146
144
143
140
139
138
138
137
135
134
131
131
131
130
129
128
127
125
123
121
118
116
116
115
115
114
113
113
113
111
111
109
108
107
103
103
102
102
101
100
97
96
95
95
94
94
94
93
92
91
90
89
86
86
86
86
85
85
85
84
84
83
82
82
80
79
78
76
74
74
71
70
68
67
67
67
66
65
65
62
61
61
61
61
60
59
